p cnf 70 2395
-1 -10 0
-1 -11 0
-1 -12 0
-1 -13 0
-1 -14 0
-1 -15 0
-1 -17 0
-1 -18 0
-1 -19 0
-1 -2 0
-1 -22 0
-1 -24 0
-1 -29 0
-1 -3 0
-1 -31 0
-1 -32 0
-1 -33 0
-1 -36 0
-1 -38 0
-1 -4 0
-1 -43 0
-1 -45 0
-1 -46 0
-1 -47 0
-1 -5 0
-1 -50 0
-1 -52 0
-1 -57 0
-1 -59 0
-1 -6 0
-1 -60 0
-1 -61 0
-1 -64 0
-1 -66 0
-1 -7 0
-1 -8 0
-1 -9 0
-10 -1 0
-10 -11 0
-10 -12 0
-10 -13 0
-10 -14 0
-10 -15 0
-10 -18 0
-10 -2 0
-10 -24 0
-10 -27 0
-10 -29 0
-10 -3 0
-10 -32 0
-10 -38 0
-10 -4 0
-10 -41 0
-10 -43 0
-10 -46 0
-10 -5 0
-10 -52 0
-10 -55 0
-10 -57 0
-10 -6 0
-10 -60 0
-10 -66 0
-10 -69 0
-10 -7 0
-10 -8 0
-10 -9 0
-11 -1 0
-11 -10 0
-11 -12 0
-11 -13 0
-11 -14 0
-11 -16 0
-11 -19 0
-11 -2 0
-11 -20 0
-11 -21 0
-11 -25 0
-11 -27 0
-11 -28 0
-11 -3 0
-11 -30 0
-11 -33 0
-11 -34 0
-11 -35 0
-11 -39 0
-11 -4 0
-11 -41 0
-11 -42 0
-11 -44 0
-11 -47 0
-11 -48 0
-11 -49 0
-11 -5 0
-11 -53 0
-11 -55 0
-11 -56 0
-11 -58 0
-11 -6 0
-11 -61 0
-11 -62 0
-11 -63 0
-11 -67 0
-11 -69 0
-11 -7 0
-11 -70 0
-11 -8 0
-11 -9 0
-12 -1 0
-12 -10 0
-12 -11 0
-12 -13 0
-12 -14 0
-12 -17 0
-12 -18 0
-12 -2 0
-12 -20 0
-12 -23 0
-12 -26 0
-12 -27 0
-12 -3 0
-12 -31 0
-12 -32 0
-12 -34 0
-12 -37 0
-12 -4 0
-12 -40 0
-12 -41 0
-12 -45 0
-12 -46 0
-12 -48 0
-12 -5 0
-12 -51 0
-12 -54 0
-12 -55 0
-12 -59 0
-12 -6 0
-12 -60 0
-12 -62 0
-12 -65 0
-12 -68 0
-12 -69 0
-12 -7 0
-12 -8 0
-12 -9 0
-13 -1 0
-13 -10 0
-13 -11 0
-13 -12 0
-13 -14 0
-13 -16 0
-13 -18 0
-13 -2 0
-13 -20 0
-13 -21 0
-13 -24 0
-13 -25 0
-13 -26 0
-13 -27 0
-13 -3 0
-13 -30 0
-13 -32 0
-13 -34 0
-13 -35 0
-13 -38 0
-13 -39 0
-13 -4 0
-13 -40 0
-13 -41 0
-13 -44 0
-13 -46 0
-13 -48 0
-13 -49 0
-13 -5 0
-13 -52 0
-13 -53 0
-13 -54 0
-13 -55 0
-13 -58 0
-13 -6 0
-13 -60 0
-13 -62 0
-13 -63 0
-13 -66 0
-13 -67 0
-13 -68 0
-13 -69 0
-13 -7 0
-13 -8 0
-13 -9 0
-14 -1 0
-14 -10 0
-14 -11 0
-14 -12 0
-14 -13 0
-14 -2 0
-14 -23 0
-14 -25 0
-14 -28 0
-14 -3 0
-14 -37 0
-14 -39 0
-14 -4 0
-14 -42 0
-14 -5 0
-14 -51 0
-14 -53 0
-14 -56 0
-14 -6 0
-14 -65 0
-14 -67 0
-14 -7 0
-14 -70 0
-14 -8 0
-14 -9 0
-15 -1 0
-15 -10 0
-15 -16 0
-15 -17 0
-15 -18 0
-15 -19 0
-15 -20 0
-15 -21 0
-15 -22 0
-15 -23 0
-15 -24 0
-15 -25 0
-15 -26 0
-15 -27 0
-15 -28 0
-15 -29 0
-15 -3 0
-15 -31 0
-15 -32 0
-15 -33 0
-15 -36 0
-15 -38 0
-15 -4 0
-15 -43 0
-15 -45 0
-15 -46 0
-15 -47 0
-15 -5 0
-15 -50 0
-15 -52 0
-15 -57 0
-15 -59 0
-15 -60 0
-15 -61 0
-15 -64 0
-15 -66 0
-15 -8 0
-16 -11 0
-16 -13 0
-16 -15 0
-16 -17 0
-16 -18 0
-16 -19 0
-16 -2 0
-16 -20 0
-16 -21 0
-16 -22 0
-16 -23 0
-16 -24 0
-16 -25 0
-16 -26 0
-16 -27 0
-16 -28 0
-16 -30 0
-16 -33 0
-16 -39 0
-16 -41 0
-16 -44 0
-16 -47 0
-16 -5 0
-16 -53 0
-16 -55 0
-16 -58 0
-16 -61 0
-16 -67 0
-16 -69 0
-17 -1 0
-17 -12 0
-17 -15 0
-17 -16 0
-17 -18 0
-17 -19 0
-17 -20 0
-17 -21 0
-17 -22 0
-17 -23 0
-17 -24 0
-17 -25 0
-17 -26 0
-17 -27 0
-17 -28 0
-17 -29 0
-17 -3 0
-17 -31 0
-17 -33 0
-17 -36 0
-17 -40 0
-17 -43 0
-17 -45 0
-17 -47 0
-17 -5 0
-17 -50 0
-17 -54 0
-17 -57 0
-17 -59 0
-17 -61 0
-17 -64 0
-17 -68 0
-17 -8 0
-18 -1 0
-18 -10 0
-18 -12 0
-18 -13 0
-18 -15 0
-18 -16 0
-18 -17 0
-18 -19 0
-18 -20 0
-18 -21 0
-18 -22 0
-18 -23 0
-18 -24 0
-18 -25 0
-18 -26 0
-18 -27 0
-18 -28 0
-18 -29 0
-18 -32 0
-18 -34 0
-18 -38 0
-18 -4 0
-18 -40 0
-18 -41 0
-18 -43 0
-18 -46 0
-18 -48 0
-18 -52 0
-18 -54 0
-18 -55 0
-18 -57 0
-18 -6 0
-18 -60 0
-18 -62 0
-18 -66 0
-18 -68 0
-18 -69 0
-19 -1 0
-19 -11 0
-19 -15 0
-19 -16 0
-19 -17 0
-19 -18 0
-19 -2 0
-19 -20 0
-19 -21 0
-19 -22 0
-19 -23 0
-19 -24 0
-19 -25 0
-19 -26 0
-19 -27 0
-19 -28 0
-19 -29 0
-19 -3 0
-19 -30 0
-19 -31 0
-19 -33 0
-19 -39 0
-19 -43 0
-19 -44 0
-19 -45 0
-19 -47 0
-19 -5 0
-19 -53 0
-19 -57 0
-19 -58 0
-19 -59 0
-19 -61 0
-19 -67 0
-2 -1 0
-2 -10 0
-2 -11 0
-2 -12 0
-2 -13 0
-2 -14 0
-2 -16 0
-2 -19 0
-2 -25 0
-2 -27 0
-2 -3 0
-2 -30 0
-2 -33 0
-2 -39 0
-2 -4 0
-2 -41 0
-2 -44 0
-2 -47 0
-2 -5 0
-2 -53 0
-2 -55 0
-2 -58 0
-2 -6 0
-2 -61 0
-2 -67 0
-2 -69 0
-2 -7 0
-2 -8 0
-2 -9 0
-20 -11 0
-20 -12 0
-20 -13 0
-20 -15 0
-20 -16 0
-20 -17 0
-20 -18 0
-20 -19 0
-20 -21 0
-20 -22 0
-20 -23 0
-20 -24 0
-20 -25 0
-20 -26 0
-20 -27 0
-20 -28 0
-20 -32 0
-20 -34 0
-20 -37 0
-20 -39 0
-20 -4 0
-20 -40 0
-20 -41 0
-20 -46 0
-20 -48 0
-20 -51 0
-20 -53 0
-20 -54 0
-20 -55 0
-20 -6 0
-20 -60 0
-20 -62 0
-20 -65 0
-20 -67 0
-20 -68 0
-20 -69 0
-20 -9 0
-21 -11 0
-21 -13 0
-21 -15 0
-21 -16 0
-21 -17 0
-21 -18 0
-21 -19 0
-21 -20 0
-21 -22 0
-21 -23 0
-21 -24 0
-21 -25 0
-21 -26 0
-21 -27 0
-21 -28 0
-21 -35 0
-21 -37 0
-21 -39 0
-21 -41 0
-21 -49 0
-21 -51 0
-21 -53 0
-21 -55 0
-21 -63 0
-21 -65 0
-21 -67 0
-21 -69 0
-21 -7 0
-21 -9 0
-22 -1 0
-22 -15 0
-22 -16 0
-22 -17 0
-22 -18 0
-22 -19 0
-22 -20 0
-22 -21 0
-22 -23 0
-22 -24 0
-22 -25 0
-22 -26 0
-22 -27 0
-22 -28 0
-22 -29 0
-22 -3 0
-22 -31 0
-22 -36 0
-22 -37 0
-22 -43 0
-22 -45 0
-22 -50 0
-22 -51 0
-22 -57 0
-22 -59 0
-22 -64 0
-22 -65 0
-22 -8 0
-22 -9 0
-23 -12 0
-23 -14 0
-23 -15 0
-23 -16 0
-23 -17 0
-23 -18 0
-23 -19 0
-23 -20 0
-23 -21 0
-23 -22 0
-23 -24 0
-23 -25 0
-23 -26 0
-23 -27 0
-23 -28 0
-23 -34 0
-23 -35 0
-23 -36 0
-23 -37 0
-23 -40 0
-23 -42 0
-23 -48 0
-23 -49 0
-23 -50 0
-23 -51 0
-23 -54 0
-23 -56 0
-23 -6 0
-23 -62 0
-23 -63 0
-23 -64 0
-23 -65 0
-23 -68 0
-23 -7 0
-23 -70 0
-23 -8 0
-23 -9 0
-24 -1 0
-24 -10 0
-24 -13 0
-24 -15 0
-24 -16 0
-24 -17 0
-24 -18 0
-24 -19 0
-24 -20 0
-24 -21 0
-24 -22 0
-24 -23 0
-24 -25 0
-24 -26 0
-24 -27 0
-24 -28 0
-24 -29 0
-24 -32 0
-24 -38 0
-24 -4 0
-24 -41 0
-24 -43 0
-24 -46 0
-24 -52 0
-24 -55 0
-24 -57 0
-24 -60 0
-24 -66 0
-24 -69 0
-25 -11 0
-25 -13 0
-25 -14 0
-25 -15 0
-25 -16 0
-25 -17 0
-25 -18 0
-25 -19 0
-25 -2 0
-25 -20 0
-25 -21 0
-25 -22 0
-25 -23 0
-25 -24 0
-25 -26 0
-25 -27 0
-25 -28 0
-25 -30 0
-25 -33 0
-25 -34 0
-25 -35 0
-25 -39 0
-25 -41 0
-25 -42 0
-25 -44 0
-25 -47 0
-25 -48 0
-25 -49 0
-25 -5 0
-25 -53 0
-25 -55 0
-25 -56 0
-25 -58 0
-25 -6 0
-25 -61 0
-25 -62 0
-25 -63 0
-25 -67 0
-25 -69 0
-25 -7 0
-25 -70 0
-26 -12 0
-26 -13 0
-26 -15 0
-26 -16 0
-26 -17 0
-26 -18 0
-26 -19 0
-26 -20 0
-26 -21 0
-26 -22 0
-26 -23 0
-26 -24 0
-26 -25 0
-26 -27 0
-26 -28 0
-26 -3 0
-26 -31 0
-26 -32 0
-26 -34 0
-26 -37 0
-26 -4 0
-26 -40 0
-26 -41 0
-26 -45 0
-26 -46 0
-26 -48 0
-26 -51 0
-26 -54 0
-26 -55 0
-26 -59 0
-26 -6 0
-26 -60 0
-26 -62 0
-26 -65 0
-26 -68 0
-26 -69 0
-26 -9 0
-27 -10 0
-27 -11 0
-27 -12 0
-27 -13 0
-27 -15 0
-27 -16 0
-27 -17 0
-27 -18 0
-27 -19 0
-27 -2 0
-27 -20 0
-27 -21 0
-27 -22 0
-27 -23 0
-27 -24 0
-27 -25 0
-27 -26 0
-27 -28 0
-27 -30 0
-27 -32 0
-27 -34 0
-27 -35 0
-27 -38 0
-27 -39 0
-27 -4 0
-27 -40 0
-27 -41 0
-27 -44 0
-27 -46 0
-27 -48 0
-27 -49 0
-27 -52 0
-27 -53 0
-27 -54 0
-27 -55 0
-27 -58 0
-27 -6 0
-27 -60 0
-27 -62 0
-27 -63 0
-27 -66 0
-27 -67 0
-27 -68 0
-27 -69 0
-27 -7 0
-28 -11 0
-28 -14 0
-28 -15 0
-28 -16 0
-28 -17 0
-28 -18 0
-28 -19 0
-28 -20 0
-28 -21 0
-28 -22 0
-28 -23 0
-28 -24 0
-28 -25 0
-28 -26 0
-28 -27 0
-28 -37 0
-28 -39 0
-28 -42 0
-28 -51 0
-28 -53 0
-28 -56 0
-28 -65 0
-28 -67 0
-28 -70 0
-28 -9 0
-29 -1 0
-29 -10 0
-29 -15 0
-29 -17 0
-29 -18 0
-29 -19 0
-29 -22 0
-29 -24 0
-29 -3 0
-29 -30 0
-29 -31 0
-29 -32 0
-29 -33 0
-29 -34 0
-29 -35 0
-29 -36 0
-29 -37 0
-29 -38 0
-29 -39 0
-29 -4 0
-29 -40 0
-29 -41 0
-29 -42 0
-29 -43 0
-29 -45 0
-29 -46 0
-29 -47 0
-29 -5 0
-29 -50 0
-29 -52 0
-29 -57 0
-29 -59 0
-29 -60 0
-29 -61 0
-29 -64 0
-29 -66 0
-29 -8 0
-3 -1 0
-3 -10 0
-3 -11 0
-3 -12 0
-3 -13 0
-3 -14 0
-3 -15 0
-3 -17 0
-3 -19 0
-3 -2 0
-3 -22 0
-3 -26 0
-3 -29 0
-3 -31 0
-3 -33 0
-3 -36 0
-3 -4 0
-3 -40 0
-3 -43 0
-3 -45 0
-3 -47 0
-3 -5 0
-3 -50 0
-3 -54 0
-3 -57 0
-3 -59 0
-3 -6 0
-3 -61 0
-3 -64 0
-3 -68 0
-3 -7 0
-3 -8 0
-3 -9 0
-30 -11 0
-30 -13 0
-30 -16 0
-30 -19 0
-30 -2 0
-30 -25 0
-30 -27 0
-30 -29 0
-30 -31 0
-30 -32 0
-30 -33 0
-30 -34 0
-30 -35 0
-30 -36 0
-30 -37 0
-30 -38 0
-30 -39 0
-30 -40 0
-30 -41 0
-30 -42 0
-30 -44 0
-30 -47 0
-30 -5 0
-30 -53 0
-30 -55 0
-30 -58 0
-30 -61 0
-30 -67 0
-30 -69 0
-31 -1 0
-31 -12 0
-31 -15 0
-31 -17 0
-31 -19 0
-31 -22 0
-31 -26 0
-31 -29 0
-31 -3 0
-31 -30 0
-31 -32 0
-31 -33 0
-31 -34 0
-31 -35 0
-31 -36 0
-31 -37 0
-31 -38 0
-31 -39 0
-31 -40 0
-31 -41 0
-31 -42 0
-31 -43 0
-31 -45 0
-31 -47 0
-31 -5 0
-31 -50 0
-31 -54 0
-31 -57 0
-31 -59 0
-31 -61 0
-31 -64 0
-31 -68 0
-31 -8 0
-32 -1 0
-32 -10 0
-32 -12 0
-32 -13 0
-32 -15 0
-32 -18 0
-32 -20 0
-32 -24 0
-32 -26 0
-32 -27 0
-32 -29 0
-32 -30 0
-32 -31 0
-32 -33 0
-32 -34 0
-32 -35 0
-32 -36 0
-32 -37 0
-32 -38 0
-32 -39 0
-32 -4 0
-32 -40 0
-32 -41 0
-32 -42 0
-32 -43 0
-32 -46 0
-32 -48 0
-32 -52 0
-32 -54 0
-32 -55 0
-32 -57 0
-32 -6 0
-32 -60 0
-32 -62 0
-32 -66 0
-32 -68 0
-32 -69 0
-33 -1 0
-33 -11 0
-33 -15 0
-33 -16 0
-33 -17 0
-33 -19 0
-33 -2 0
-33 -25 0
-33 -29 0
-33 -3 0
-33 -30 0
-33 -31 0
-33 -32 0
-33 -34 0
-33 -35 0
-33 -36 0
-33 -37 0
-33 -38 0
-33 -39 0
-33 -40 0
-33 -41 0
-33 -42 0
-33 -43 0
-33 -44 0
-33 -45 0
-33 -47 0
-33 -5 0
-33 -53 0
-33 -57 0
-33 -58 0
-33 -59 0
-33 -61 0
-33 -67 0
-34 -11 0
-34 -12 0
-34 -13 0
-34 -18 0
-34 -20 0
-34 -23 0
-34 -25 0
-34 -26 0
-34 -27 0
-34 -29 0
-34 -30 0
-34 -31 0
-34 -32 0
-34 -33 0
-34 -35 0
-34 -36 0
-34 -37 0
-34 -38 0
-34 -39 0
-34 -4 0
-34 -40 0
-34 -41 0
-34 -42 0
-34 -46 0
-34 -48 0
-34 -51 0
-34 -53 0
-34 -54 0
-34 -55 0
-34 -6 0
-34 -60 0
-34 -62 0
-34 -65 0
-34 -67 0
-34 -68 0
-34 -69 0
-34 -9 0
-35 -11 0
-35 -13 0
-35 -21 0
-35 -23 0
-35 -25 0
-35 -27 0
-35 -29 0
-35 -30 0
-35 -31 0
-35 -32 0
-35 -33 0
-35 -34 0
-35 -36 0
-35 -37 0
-35 -38 0
-35 -39 0
-35 -40 0
-35 -41 0
-35 -42 0
-35 -49 0
-35 -51 0
-35 -53 0
-35 -55 0
-35 -63 0
-35 -65 0
-35 -67 0
-35 -69 0
-35 -7 0
-35 -9 0
-36 -1 0
-36 -15 0
-36 -17 0
-36 -22 0
-36 -23 0
-36 -29 0
-36 -3 0
-36 -30 0
-36 -31 0
-36 -32 0
-36 -33 0
-36 -34 0
-36 -35 0
-36 -37 0
-36 -38 0
-36 -39 0
-36 -40 0
-36 -41 0
-36 -42 0
-36 -43 0
-36 -45 0
-36 -50 0
-36 -51 0
-36 -57 0
-36 -59 0
-36 -64 0
-36 -65 0
-36 -8 0
-36 -9 0
-37 -12 0
-37 -14 0
-37 -20 0
-37 -21 0
-37 -22 0
-37 -23 0
-37 -26 0
-37 -28 0
-37 -29 0
-37 -30 0
-37 -31 0
-37 -32 0
-37 -33 0
-37 -34 0
-37 -35 0
-37 -36 0
-37 -38 0
-37 -39 0
-37 -40 0
-37 -41 0
-37 -42 0
-37 -48 0
-37 -49 0
-37 -50 0
-37 -51 0
-37 -54 0
-37 -56 0
-37 -6 0
-37 -62 0
-37 -63 0
-37 -64 0
-37 -65 0
-37 -68 0
-37 -7 0
-37 -70 0
-37 -8 0
-37 -9 0
-38 -1 0
-38 -10 0
-38 -13 0
-38 -15 0
-38 -18 0
-38 -24 0
-38 -27 0
-38 -29 0
-38 -30 0
-38 -31 0
-38 -32 0
-38 -33 0
-38 -34 0
-38 -35 0
-38 -36 0
-38 -37 0
-38 -39 0
-38 -4 0
-38 -40 0
-38 -41 0
-38 -42 0
-38 -43 0
-38 -46 0
-38 -52 0
-38 -55 0
-38 -57 0
-38 -60 0
-38 -66 0
-38 -69 0
-39 -11 0
-39 -13 0
-39 -14 0
-39 -16 0
-39 -19 0
-39 -2 0
-39 -20 0
-39 -21 0
-39 -25 0
-39 -27 0
-39 -28 0
-39 -29 0
-39 -30 0
-39 -31 0
-39 -32 0
-39 -33 0
-39 -34 0
-39 -35 0
-39 -36 0
-39 -37 0
-39 -38 0
-39 -40 0
-39 -41 0
-39 -42 0
-39 -44 0
-39 -47 0
-39 -48 0
-39 -49 0
-39 -5 0
-39 -53 0
-39 -55 0
-39 -56 0
-39 -58 0
-39 -6 0
-39 -61 0
-39 -62 0
-39 -63 0
-39 -67 0
-39 -69 0
-39 -7 0
-39 -70 0
-4 -1 0
-4 -10 0
-4 -11 0
-4 -12 0
-4 -13 0
-4 -14 0
-4 -15 0
-4 -18 0
-4 -2 0
-4 -20 0
-4 -24 0
-4 -26 0
-4 -27 0
-4 -29 0
-4 -3 0
-4 -32 0
-4 -34 0
-4 -38 0
-4 -40 0
-4 -41 0
-4 -43 0
-4 -46 0
-4 -48 0
-4 -5 0
-4 -52 0
-4 -54 0
-4 -55 0
-4 -57 0
-4 -6 0
-4 -60 0
-4 -62 0
-4 -66 0
-4 -68 0
-4 -69 0
-4 -7 0
-4 -8 0
-4 -9 0
-40 -12 0
-40 -13 0
-40 -17 0
-40 -18 0
-40 -20 0
-40 -23 0
-40 -26 0
-40 -27 0
-40 -29 0
-40 -3 0
-40 -30 0
-40 -31 0
-40 -32 0
-40 -33 0
-40 -34 0
-40 -35 0
-40 -36 0
-40 -37 0
-40 -38 0
-40 -39 0
-40 -4 0
-40 -41 0
-40 -42 0
-40 -45 0
-40 -46 0
-40 -48 0
-40 -51 0
-40 -54 0
-40 -55 0
-40 -59 0
-40 -6 0
-40 -60 0
-40 -62 0
-40 -65 0
-40 -68 0
-40 -69 0
-40 -9 0
-41 -10 0
-41 -11 0
-41 -12 0
-41 -13 0
-41 -16 0
-41 -18 0
-41 -2 0
-41 -20 0
-41 -21 0
-41 -24 0
-41 -25 0
-41 -26 0
-41 -27 0
-41 -29 0
-41 -30 0
-41 -31 0
-41 -32 0
-41 -33 0
-41 -34 0
-41 -35 0
-41 -36 0
-41 -37 0
-41 -38 0
-41 -39 0
-41 -4 0
-41 -40 0
-41 -42 0
-41 -44 0
-41 -46 0
-41 -48 0
-41 -49 0
-41 -52 0
-41 -53 0
-41 -54 0
-41 -55 0
-41 -58 0
-41 -6 0
-41 -60 0
-41 -62 0
-41 -63 0
-41 -66 0
-41 -67 0
-41 -68 0
-41 -69 0
-41 -7 0
-42 -11 0
-42 -14 0
-42 -23 0
-42 -25 0
-42 -28 0
-42 -29 0
-42 -30 0
-42 -31 0
-42 -32 0
-42 -33 0
-42 -34 0
-42 -35 0
-42 -36 0
-42 -37 0
-42 -38 0
-42 -39 0
-42 -40 0
-42 -41 0
-42 -51 0
-42 -53 0
-42 -56 0
-42 -65 0
-42 -67 0
-42 -70 0
-42 -9 0
-43 -1 0
-43 -10 0
-43 -15 0
-43 -17 0
-43 -18 0
-43 -19 0
-43 -22 0
-43 -24 0
-43 -29 0
-43 -3 0
-43 -31 0
-43 -32 0
-43 -33 0
-43 -36 0
-43 -38 0
-43 -4 0
-43 -44 0
-43 -45 0
-43 -46 0
-43 -47 0
-43 -48 0
-43 -49 0
-43 -5 0
-43 -50 0
-43 -51 0
-43 -52 0
-43 -53 0
-43 -54 0
-43 -55 0
-43 -56 0
-43 -57 0
-43 -59 0
-43 -60 0
-43 -61 0
-43 -64 0
-43 -66 0
-43 -8 0
-44 -11 0
-44 -13 0
-44 -16 0
-44 -19 0
-44 -2 0
-44 -25 0
-44 -27 0
-44 -30 0
-44 -33 0
-44 -39 0
-44 -41 0
-44 -43 0
-44 -45 0
-44 -46 0
-44 -47 0
-44 -48 0
-44 -49 0
-44 -5 0
-44 -50 0
-44 -51 0
-44 -52 0
-44 -53 0
-44 -54 0
-44 -55 0
-44 -56 0
-44 -58 0
-44 -61 0
-44 -67 0
-44 -69 0
-45 -1 0
-45 -12 0
-45 -15 0
-45 -17 0
-45 -19 0
-45 -22 0
-45 -26 0
-45 -29 0
-45 -3 0
-45 -31 0
-45 -33 0
-45 -36 0
-45 -40 0
-45 -43 0
-45 -44 0
-45 -46 0
-45 -47 0
-45 -48 0
-45 -49 0
-45 -5 0
-45 -50 0
-45 -51 0
-45 -52 0
-45 -53 0
-45 -54 0
-45 -55 0
-45 -56 0
-45 -57 0
-45 -59 0
-45 -61 0
-45 -64 0
-45 -68 0
-45 -8 0
-46 -1 0
-46 -10 0
-46 -12 0
-46 -13 0
-46 -15 0
-46 -18 0
-46 -20 0
-46 -24 0
-46 -26 0
-46 -27 0
-46 -29 0
-46 -32 0
-46 -34 0
-46 -38 0
-46 -4 0
-46 -40 0
-46 -41 0
-46 -43 0
-46 -44 0
-46 -45 0
-46 -47 0
-46 -48 0
-46 -49 0
-46 -50 0
-46 -51 0
-46 -52 0
-46 -53 0
-46 -54 0
-46 -55 0
-46 -56 0
-46 -57 0
-46 -6 0
-46 -60 0
-46 -62 0
-46 -66 0
-46 -68 0
-46 -69 0
-47 -1 0
-47 -11 0
-47 -15 0
-47 -16 0
-47 -17 0
-47 -19 0
-47 -2 0
-47 -25 0
-47 -29 0
-47 -3 0
-47 -30 0
-47 -31 0
-47 -33 0
-47 -39 0
-47 -43 0
-47 -44 0
-47 -45 0
-47 -46 0
-47 -48 0
-47 -49 0
-47 -5 0
-47 -50 0
-47 -51 0
-47 -52 0
-47 -53 0
-47 -54 0
-47 -55 0
-47 -56 0
-47 -57 0
-47 -58 0
-47 -59 0
-47 -61 0
-47 -67 0
-48 -11 0
-48 -12 0
-48 -13 0
-48 -18 0
-48 -20 0
-48 -23 0
-48 -25 0
-48 -26 0
-48 -27 0
-48 -32 0
-48 -34 0
-48 -37 0
-48 -39 0
-48 -4 0
-48 -40 0
-48 -41 0
-48 -43 0
-48 -44 0
-48 -45 0
-48 -46 0
-48 -47 0
-48 -49 0
-48 -50 0
-48 -51 0
-48 -52 0
-48 -53 0
-48 -54 0
-48 -55 0
-48 -56 0
-48 -6 0
-48 -60 0
-48 -62 0
-48 -65 0
-48 -67 0
-48 -68 0
-48 -69 0
-48 -9 0
-49 -11 0
-49 -13 0
-49 -21 0
-49 -23 0
-49 -25 0
-49 -27 0
-49 -35 0
-49 -37 0
-49 -39 0
-49 -41 0
-49 -43 0
-49 -44 0
-49 -45 0
-49 -46 0
-49 -47 0
-49 -48 0
-49 -50 0
-49 -51 0
-49 -52 0
-49 -53 0
-49 -54 0
-49 -55 0
-49 -56 0
-49 -63 0
-49 -65 0
-49 -67 0
-49 -69 0
-49 -7 0
-49 -9 0
-5 -1 0
-5 -10 0
-5 -11 0
-5 -12 0
-5 -13 0
-5 -14 0
-5 -15 0
-5 -16 0
-5 -17 0
-5 -19 0
-5 -2 0
-5 -25 0
-5 -29 0
-5 -3 0
-5 -30 0
-5 -31 0
-5 -33 0
-5 -39 0
-5 -4 0
-5 -43 0
-5 -44 0
-5 -45 0
-5 -47 0
-5 -53 0
-5 -57 0
-5 -58 0
-5 -59 0
-5 -6 0
-5 -61 0
-5 -67 0
-5 -7 0
-5 -8 0
-5 -9 0
-50 -1 0
-50 -15 0
-50 -17 0
-50 -22 0
-50 -23 0
-50 -29 0
-50 -3 0
-50 -31 0
-50 -36 0
-50 -37 0
-50 -43 0
-50 -44 0
-50 -45 0
-50 -46 0
-50 -47 0
-50 -48 0
-50 -49 0
-50 -51 0
-50 -52 0
-50 -53 0
-50 -54 0
-50 -55 0
-50 -56 0
-50 -57 0
-50 -59 0
-50 -64 0
-50 -65 0
-50 -8 0
-50 -9 0
-51 -12 0
-51 -14 0
-51 -20 0
-51 -21 0
-51 -22 0
-51 -23 0
-51 -26 0
-51 -28 0
-51 -34 0
-51 -35 0
-51 -36 0
-51 -37 0
-51 -40 0
-51 -42 0
-51 -43 0
-51 -44 0
-51 -45 0
-51 -46 0
-51 -47 0
-51 -48 0
-51 -49 0
-51 -50 0
-51 -52 0
-51 -53 0
-51 -54 0
-51 -55 0
-51 -56 0
-51 -6 0
-51 -62 0
-51 -63 0
-51 -64 0
-51 -65 0
-51 -68 0
-51 -7 0
-51 -70 0
-51 -8 0
-51 -9 0
-52 -1 0
-52 -10 0
-52 -13 0
-52 -15 0
-52 -18 0
-52 -24 0
-52 -27 0
-52 -29 0
-52 -32 0
-52 -38 0
-52 -4 0
-52 -41 0
-52 -43 0
-52 -44 0
-52 -45 0
-52 -46 0
-52 -47 0
-52 -48 0
-52 -49 0
-52 -50 0
-52 -51 0
-52 -53 0
-52 -54 0
-52 -55 0
-52 -56 0
-52 -57 0
-52 -60 0
-52 -66 0
-52 -69 0
-53 -11 0
-53 -13 0
-53 -14 0
-53 -16 0
-53 -19 0
-53 -2 0
-53 -20 0
-53 -21 0
-53 -25 0
-53 -27 0
-53 -28 0
-53 -30 0
-53 -33 0
-53 -34 0
-53 -35 0
-53 -39 0
-53 -41 0
-53 -42 0
-53 -43 0
-53 -44 0
-53 -45 0
-53 -46 0
-53 -47 0
-53 -48 0
-53 -49 0
-53 -5 0
-53 -50 0
-53 -51 0
-53 -52 0
-53 -54 0
-53 -55 0
-53 -56 0
-53 -58 0
-53 -6 0
-53 -61 0
-53 -62 0
-53 -63 0
-53 -67 0
-53 -69 0
-53 -7 0
-53 -70 0
-54 -12 0
-54 -13 0
-54 -17 0
-54 -18 0
-54 -20 0
-54 -23 0
-54 -26 0
-54 -27 0
-54 -3 0
-54 -31 0
-54 -32 0
-54 -34 0
-54 -37 0
-54 -4 0
-54 -40 0
-54 -41 0
-54 -43 0
-54 -44 0
-54 -45 0
-54 -46 0
-54 -47 0
-54 -48 0
-54 -49 0
-54 -50 0
-54 -51 0
-54 -52 0
-54 -53 0
-54 -55 0
-54 -56 0
-54 -59 0
-54 -6 0
-54 -60 0
-54 -62 0
-54 -65 0
-54 -68 0
-54 -69 0
-54 -9 0
-55 -10 0
-55 -11 0
-55 -12 0
-55 -13 0
-55 -16 0
-55 -18 0
-55 -2 0
-55 -20 0
-55 -21 0
-55 -24 0
-55 -25 0
-55 -26 0
-55 -27 0
-55 -30 0
-55 -32 0
-55 -34 0
-55 -35 0
-55 -38 0
-55 -39 0
-55 -4 0
-55 -40 0
-55 -41 0
-55 -43 0
-55 -44 0
-55 -45 0
-55 -46 0
-55 -47 0
-55 -48 0
-55 -49 0
-55 -50 0
-55 -51 0
-55 -52 0
-55 -53 0
-55 -54 0
-55 -56 0
-55 -58 0
-55 -6 0
-55 -60 0
-55 -62 0
-55 -63 0
-55 -66 0
-55 -67 0
-55 -68 0
-55 -69 0
-55 -7 0
-56 -11 0
-56 -14 0
-56 -23 0
-56 -25 0
-56 -28 0
-56 -37 0
-56 -39 0
-56 -42 0
-56 -43 0
-56 -44 0
-56 -45 0
-56 -46 0
-56 -47 0
-56 -48 0
-56 -49 0
-56 -50 0
-56 -51 0
-56 -52 0
-56 -53 0
-56 -54 0
-56 -55 0
-56 -65 0
-56 -67 0
-56 -70 0
-56 -9 0
-57 -1 0
-57 -10 0
-57 -15 0
-57 -17 0
-57 -18 0
-57 -19 0
-57 -22 0
-57 -24 0
-57 -29 0
-57 -3 0
-57 -31 0
-57 -32 0
-57 -33 0
-57 -36 0
-57 -38 0
-57 -4 0
-57 -43 0
-57 -45 0
-57 -46 0
-57 -47 0
-57 -5 0
-57 -50 0
-57 -52 0
-57 -58 0
-57 -59 0
-57 -60 0
-57 -61 0
-57 -62 0
-57 -63 0
-57 -64 0
-57 -65 0
-57 -66 0
-57 -67 0
-57 -68 0
-57 -69 0
-57 -70 0
-57 -8 0
-58 -11 0
-58 -13 0
-58 -16 0
-58 -19 0
-58 -2 0
-58 -25 0
-58 -27 0
-58 -30 0
-58 -33 0
-58 -39 0
-58 -41 0
-58 -44 0
-58 -47 0
-58 -5 0
-58 -53 0
-58 -55 0
-58 -57 0
-58 -59 0
-58 -60 0
-58 -61 0
-58 -62 0
-58 -63 0
-58 -64 0
-58 -65 0
-58 -66 0
-58 -67 0
-58 -68 0
-58 -69 0
-58 -70 0
-59 -1 0
-59 -12 0
-59 -15 0
-59 -17 0
-59 -19 0
-59 -22 0
-59 -26 0
-59 -29 0
-59 -3 0
-59 -31 0
-59 -33 0
-59 -36 0
-59 -40 0
-59 -43 0
-59 -45 0
-59 -47 0
-59 -5 0
-59 -50 0
-59 -54 0
-59 -57 0
-59 -58 0
-59 -60 0
-59 -61 0
-59 -62 0
-59 -63 0
-59 -64 0
-59 -65 0
-59 -66 0
-59 -67 0
-59 -68 0
-59 -69 0
-59 -70 0
-59 -8 0
-6 -1 0
-6 -10 0
-6 -11 0
-6 -12 0
-6 -13 0
-6 -14 0
-6 -18 0
-6 -2 0
-6 -20 0
-6 -23 0
-6 -25 0
-6 -26 0
-6 -27 0
-6 -3 0
-6 -32 0
-6 -34 0
-6 -37 0
-6 -39 0
-6 -4 0
-6 -40 0
-6 -41 0
-6 -46 0
-6 -48 0
-6 -5 0
-6 -51 0
-6 -53 0
-6 -54 0
-6 -55 0
-6 -60 0
-6 -62 0
-6 -65 0
-6 -67 0
-6 -68 0
-6 -69 0
-6 -7 0
-6 -8 0
-6 -9 0
-60 -1 0
-60 -10 0
-60 -12 0
-60 -13 0
-60 -15 0
-60 -18 0
-60 -20 0
-60 -24 0
-60 -26 0
-60 -27 0
-60 -29 0
-60 -32 0
-60 -34 0
-60 -38 0
-60 -4 0
-60 -40 0
-60 -41 0
-60 -43 0
-60 -46 0
-60 -48 0
-60 -52 0
-60 -54 0
-60 -55 0
-60 -57 0
-60 -58 0
-60 -59 0
-60 -6 0
-60 -61 0
-60 -62 0
-60 -63 0
-60 -64 0
-60 -65 0
-60 -66 0
-60 -67 0
-60 -68 0
-60 -69 0
-60 -70 0
-61 -1 0
-61 -11 0
-61 -15 0
-61 -16 0
-61 -17 0
-61 -19 0
-61 -2 0
-61 -25 0
-61 -29 0
-61 -3 0
-61 -30 0
-61 -31 0
-61 -33 0
-61 -39 0
-61 -43 0
-61 -44 0
-61 -45 0
-61 -47 0
-61 -5 0
-61 -53 0
-61 -57 0
-61 -58 0
-61 -59 0
-61 -60 0
-61 -62 0
-61 -63 0
-61 -64 0
-61 -65 0
-61 -66 0
-61 -67 0
-61 -68 0
-61 -69 0
-61 -70 0
-62 -11 0
-62 -12 0
-62 -13 0
-62 -18 0
-62 -20 0
-62 -23 0
-62 -25 0
-62 -26 0
-62 -27 0
-62 -32 0
-62 -34 0
-62 -37 0
-62 -39 0
-62 -4 0
-62 -40 0
-62 -41 0
-62 -46 0
-62 -48 0
-62 -51 0
-62 -53 0
-62 -54 0
-62 -55 0
-62 -57 0
-62 -58 0
-62 -59 0
-62 -6 0
-62 -60 0
-62 -61 0
-62 -63 0
-62 -64 0
-62 -65 0
-62 -66 0
-62 -67 0
-62 -68 0
-62 -69 0
-62 -70 0
-62 -9 0
-63 -11 0
-63 -13 0
-63 -21 0
-63 -23 0
-63 -25 0
-63 -27 0
-63 -35 0
-63 -37 0
-63 -39 0
-63 -41 0
-63 -49 0
-63 -51 0
-63 -53 0
-63 -55 0
-63 -57 0
-63 -58 0
-63 -59 0
-63 -60 0
-63 -61 0
-63 -62 0
-63 -64 0
-63 -65 0
-63 -66 0
-63 -67 0
-63 -68 0
-63 -69 0
-63 -7 0
-63 -70 0
-63 -9 0
-64 -1 0
-64 -15 0
-64 -17 0
-64 -22 0
-64 -23 0
-64 -29 0
-64 -3 0
-64 -31 0
-64 -36 0
-64 -37 0
-64 -43 0
-64 -45 0
-64 -50 0
-64 -51 0
-64 -57 0
-64 -58 0
-64 -59 0
-64 -60 0
-64 -61 0
-64 -62 0
-64 -63 0
-64 -65 0
-64 -66 0
-64 -67 0
-64 -68 0
-64 -69 0
-64 -70 0
-64 -8 0
-64 -9 0
-65 -12 0
-65 -14 0
-65 -20 0
-65 -21 0
-65 -22 0
-65 -23 0
-65 -26 0
-65 -28 0
-65 -34 0
-65 -35 0
-65 -36 0
-65 -37 0
-65 -40 0
-65 -42 0
-65 -48 0
-65 -49 0
-65 -50 0
-65 -51 0
-65 -54 0
-65 -56 0
-65 -57 0
-65 -58 0
-65 -59 0
-65 -6 0
-65 -60 0
-65 -61 0
-65 -62 0
-65 -63 0
-65 -64 0
-65 -66 0
-65 -67 0
-65 -68 0
-65 -69 0
-65 -7 0
-65 -70 0
-65 -8 0
-65 -9 0
-66 -1 0
-66 -10 0
-66 -13 0
-66 -15 0
-66 -18 0
-66 -24 0
-66 -27 0
-66 -29 0
-66 -32 0
-66 -38 0
-66 -4 0
-66 -41 0
-66 -43 0
-66 -46 0
-66 -52 0
-66 -55 0
-66 -57 0
-66 -58 0
-66 -59 0
-66 -60 0
-66 -61 0
-66 -62 0
-66 -63 0
-66 -64 0
-66 -65 0
-66 -67 0
-66 -68 0
-66 -69 0
-66 -70 0
-67 -11 0
-67 -13 0
-67 -14 0
-67 -16 0
-67 -19 0
-67 -2 0
-67 -20 0
-67 -21 0
-67 -25 0
-67 -27 0
-67 -28 0
-67 -30 0
-67 -33 0
-67 -34 0
-67 -35 0
-67 -39 0
-67 -41 0
-67 -42 0
-67 -44 0
-67 -47 0
-67 -48 0
-67 -49 0
-67 -5 0
-67 -53 0
-67 -55 0
-67 -56 0
-67 -57 0
-67 -58 0
-67 -59 0
-67 -6 0
-67 -60 0
-67 -61 0
-67 -62 0
-67 -63 0
-67 -64 0
-67 -65 0
-67 -66 0
-67 -68 0
-67 -69 0
-67 -7 0
-67 -70 0
-68 -12 0
-68 -13 0
-68 -17 0
-68 -18 0
-68 -20 0
-68 -23 0
-68 -26 0
-68 -27 0
-68 -3 0
-68 -31 0
-68 -32 0
-68 -34 0
-68 -37 0
-68 -4 0
-68 -40 0
-68 -41 0
-68 -45 0
-68 -46 0
-68 -48 0
-68 -51 0
-68 -54 0
-68 -55 0
-68 -57 0
-68 -58 0
-68 -59 0
-68 -6 0
-68 -60 0
-68 -61 0
-68 -62 0
-68 -63 0
-68 -64 0
-68 -65 0
-68 -66 0
-68 -67 0
-68 -69 0
-68 -70 0
-68 -9 0
-69 -10 0
-69 -11 0
-69 -12 0
-69 -13 0
-69 -16 0
-69 -18 0
-69 -2 0
-69 -20 0
-69 -21 0
-69 -24 0
-69 -25 0
-69 -26 0
-69 -27 0
-69 -30 0
-69 -32 0
-69 -34 0
-69 -35 0
-69 -38 0
-69 -39 0
-69 -4 0
-69 -40 0
-69 -41 0
-69 -44 0
-69 -46 0
-69 -48 0
-69 -49 0
-69 -52 0
-69 -53 0
-69 -54 0
-69 -55 0
-69 -57 0
-69 -58 0
-69 -59 0
-69 -6 0
-69 -60 0
-69 -61 0
-69 -62 0
-69 -63 0
-69 -64 0
-69 -65 0
-69 -66 0
-69 -67 0
-69 -68 0
-69 -7 0
-69 -70 0
-7 -1 0
-7 -10 0
-7 -11 0
-7 -12 0
-7 -13 0
-7 -14 0
-7 -2 0
-7 -21 0
-7 -23 0
-7 -25 0
-7 -27 0
-7 -3 0
-7 -35 0
-7 -37 0
-7 -39 0
-7 -4 0
-7 -41 0
-7 -49 0
-7 -5 0
-7 -51 0
-7 -53 0
-7 -55 0
-7 -6 0
-7 -63 0
-7 -65 0
-7 -67 0
-7 -69 0
-7 -8 0
-7 -9 0
-70 -11 0
-70 -14 0
-70 -23 0
-70 -25 0
-70 -28 0
-70 -37 0
-70 -39 0
-70 -42 0
-70 -51 0
-70 -53 0
-70 -56 0
-70 -57 0
-70 -58 0
-70 -59 0
-70 -60 0
-70 -61 0
-70 -62 0
-70 -63 0
-70 -64 0
-70 -65 0
-70 -66 0
-70 -67 0
-70 -68 0
-70 -69 0
-70 -9 0
-8 -1 0
-8 -10 0
-8 -11 0
-8 -12 0
-8 -13 0
-8 -14 0
-8 -15 0
-8 -17 0
-8 -2 0
-8 -22 0
-8 -23 0
-8 -29 0
-8 -3 0
-8 -31 0
-8 -36 0
-8 -37 0
-8 -4 0
-8 -43 0
-8 -45 0
-8 -5 0
-8 -50 0
-8 -51 0
-8 -57 0
-8 -59 0
-8 -6 0
-8 -64 0
-8 -65 0
-8 -7 0
-8 -9 0
-9 -1 0
-9 -10 0
-9 -11 0
-9 -12 0
-9 -13 0
-9 -14 0
-9 -2 0
-9 -20 0
-9 -21 0
-9 -22 0
-9 -23 0
-9 -26 0
-9 -28 0
-9 -3 0
-9 -34 0
-9 -35 0
-9 -36 0
-9 -37 0
-9 -4 0
-9 -40 0
-9 -42 0
-9 -48 0
-9 -49 0
-9 -5 0
-9 -50 0
-9 -51 0
-9 -54 0
-9 -56 0
-9 -6 0
-9 -62 0
-9 -63 0
-9 -64 0
-9 -65 0
-9 -68 0
-9 -7 0
-9 -70 0
-9 -8 0
1 2 3 4 5 6 7 8 9 10 11 12 13 14 0
15 16 17 18 19 20 21 22 23 24 25 26 27 28 0
29 30 31 32 33 34 35 36 37 38 39 40 41 42 0
43 44 45 46 47 48 49 50 51 52 53 54 55 56 0
57 58 59 60 61 62 63 64 65 66 67 68 69 70 0
